57 30 86 50 97 96 59 94 67 14 60 47 85 43 36 30 94 50 52 63 55 50 40 31 43 
30 94 69 46 29 27 26 45 79 86 60 40 38 40 73 88 54 26 95 38 75 78 71 62 73 
40 79 46 79 79 15 96 39 89 45 58 28 90 81 22 72 22 75 13 83 49 61 93 59 82 
32 23 39 11 52 77 20 15 25 75 46 68 53 77 31 87 57 32 30 97 84 72 22 53 97 
51 80 92 80 76 23 33 78 88 25 80 50 50 36 75 60 26 84 38 26 23 68 36 80 78 
718.00
